data;

param D := 3;
param E := 6;
param V := 4;

param:  link_src	link_dst	    c :=
	1		1			4			4
	2       3			4			5
	3		3		    4			6
	4		2		    4			4
	5		1		    3		   10
	6		2		    3		   10;
	
	
param: demand_src	demand_dst  :=
	1		1			4
	2		2			4
	3		3			4;
	
param h:	1	2	3	4 :=
		1	0	0	0	3
		2	0	0	0	2
		3	0	0	0	3
		4	0	0	0	0;
		
end;	